syn05h.py
Ipopt 3.12.8: 
==> Warning: Treating 2 binary and 3 integer variables as continous.


******************************************************************************
This program contains Ipopt, a library for large-scale nonlinear optimization.
 Ipopt is released as open source code under the Eclipse Public License (EPL).
         For more information visit http://projects.coin-or.org/Ipopt
******************************************************************************

This is Ipopt version 3.12.8, running with linear solver ma27.

Number of nonzeros in equality constraint Jacobian...:       65
Number of nonzeros in inequality constraint Jacobian.:       62
Number of nonzeros in Lagrangian Hessian.............:       15

Total number of variables............................:       42
                     variables with only lower bounds:       35
                variables with lower and upper bounds:        7
                     variables with only upper bounds:        0
Total number of equality constraints.................:       30
Total number of inequality constraints...............:       28
        inequality constraints with only lower bounds:        3
   inequality constraints with lower and upper bounds:        0
        inequality constraints with only upper bounds:       25

iter    objective    inf_pr   inf_du lg(mu)  ||d||  lg(rg) alpha_du alpha_pr  ls
   0 -7.1799928e+00 9.80e-01 2.19e+01  -1.0 0.00e+00    -  0.00e+00 0.00e+00   0
   1 -1.4777274e+01 9.26e-01 2.18e+01  -1.0 4.97e+00    -  1.26e-02 5.46e-02f  1
   2 -2.3086376e+01 8.65e-01 2.03e+01  -1.0 4.90e+00    -  6.83e-02 6.63e-02f  1
   3 -4.6993598e+01 8.10e-01 1.93e+01  -1.0 4.33e+00    -  5.00e-02 6.35e-02f  1
   4 -1.1727002e+02 7.51e-01 2.09e+01  -1.0 7.26e+00    -  3.14e-02 7.35e-02f  1
   5 -2.4186424e+02 6.42e-01 2.05e+01  -1.0 7.65e+00    -  1.07e-01 1.44e-01f  1
   6 -3.4377434e+02 5.49e-01 1.30e+01  -1.0 9.77e+00    -  3.18e-01 1.46e-01f  1
   7 -4.4213719e+02 4.51e-01 1.07e+01  -1.0 1.08e+01    -  2.30e-01 1.78e-01f  1
   8 -5.2240027e+02 3.71e-01 3.66e+01  -1.0 9.82e+00    -  5.29e-01 1.78e-01f  1
   9 -5.9402811e+02 2.89e-01 4.42e+01  -1.0 5.38e+00    -  9.73e-01 2.22e-01f  1
iter    objective    inf_pr   inf_du lg(mu)  ||d||  lg(rg) alpha_du alpha_pr  ls
  10 -8.0912422e+02 2.83e-02 1.57e+01  -1.0 3.31e+00    -  7.67e-01 9.02e-01f  1
  11 -8.2721732e+02 6.14e-03 7.47e+01  -1.0 3.35e-01    -  1.00e+00 7.83e-01f  1
  12 -8.3092305e+02 5.33e-04 1.45e+02  -1.0 8.18e-02    -  1.00e+00 9.13e-01h  1
  13 -8.3059068e+02 4.36e-06 1.51e+02  -1.0 1.67e-02    -  1.00e+00 9.92e-01h  1
  14 -8.3055290e+02 4.44e-16 8.64e-02  -1.0 4.79e-03    -  1.00e+00 1.00e+00h  1
  15 -8.3770747e+02 4.49e-04 1.28e+05  -5.7 2.85e-01    -  8.99e-01 9.68e-01f  1
  16 -8.3794047e+02 3.39e-05 1.74e+04  -5.7 1.55e-01    -  8.99e-01 9.76e-01f  1
  17 -8.3797740e+02 1.61e-05 2.63e+03  -5.7 5.07e-01    -  8.25e-01 5.24e-01f  1
  18 -8.3801047e+02 7.62e-07 2.23e+02  -5.7 2.45e-01    -  9.30e-01 9.87e-01f  1
  19 -8.3801058e+02 9.11e-09 8.81e+01  -5.7 2.29e-04    -  6.15e-01 8.61e-01f  1
iter    objective    inf_pr   inf_du lg(mu)  ||d||  lg(rg) alpha_du alpha_pr  ls
  20 -8.3801063e+02 4.44e-16 2.20e-01  -5.7 3.16e-05    -  1.00e+00 1.00e+00f  1
  21 -8.3801061e+02 1.78e-15 9.14e-02  -5.7 1.23e-06    -  1.00e+00 1.00e+00h  1
  22 -8.3801061e+02 3.55e-43 1.59e-04  -5.7 5.45e-08    -  1.00e+00 1.00e+00h  1
  23 -8.3801061e+02 1.78e-15 1.99e-06  -5.7 1.08e-09    -  1.00e+00 1.00e+00h  1
  24 -8.3801075e+02 6.62e-24 5.17e+00  -8.6 2.28e-04    -  1.00e+00 9.72e-01f  1
  25 -8.3801075e+02 1.78e-15 1.31e+00  -8.6 6.46e-06    -  1.00e+00 7.77e-01f  1
  26 -8.3801075e+02 5.36e-09 4.22e+00  -8.6 1.44e-06    -  1.00e+00 6.04e-01f  1
  27 -8.3801075e+02 4.24e-09 4.48e-01  -8.6 5.70e-07    -  1.00e+00 8.82e-01f  1
  28 -8.3801075e+02 1.71e-09 5.37e+00  -8.6 6.72e-08    -  1.85e-01 4.10e-01f  2
  29 -8.3801075e+02 4.44e-16 2.12e-02  -8.6 3.96e-08    -  1.00e+00 1.00e+00h  1
iter    objective    inf_pr   inf_du lg(mu)  ||d||  lg(rg) alpha_du alpha_pr  ls
  30 -8.3801075e+02 1.78e-15 7.99e-05  -8.6 1.56e-10    -  1.00e+00 1.00e+00h  1
  31 -8.3801075e+02 1.78e-15 1.92e-07  -8.6 1.50e-11    -  1.00e+00 1.00e+00h  1
  32 -8.3801075e+02 4.44e-16 9.88e-13  -8.6 3.48e-14    -  1.00e+00 1.00e+00h  1

Number of Iterations....: 32

                                   (scaled)                 (unscaled)
Objective...............:  -2.7933691657450788e+02   -8.3801074972352365e+02
Dual infeasibility......:   9.8787644731146429e-13    2.9636293419343929e-12
Constraint violation....:   4.4408920985006262e-16    4.4408920985006262e-16
Complementarity.........:   2.5059035823445587e-09    7.5177107470336769e-09
Overall NLP error.......:   2.5059035823445587e-09    7.5177107470336769e-09


Number of objective function evaluations             = 34
Number of objective gradient evaluations             = 33
Number of equality constraint evaluations            = 34
Number of inequality constraint evaluations          = 34
Number of equality constraint Jacobian evaluations   = 33
Number of inequality constraint Jacobian evaluations = 33
Number of Lagrangian Hessian evaluations             = 32
Total CPU secs in IPOPT (w/o function evaluations)   =      0.016
Total CPU secs in NLP function evaluations           =      0.000

EXIT: Optimal Solution Found.

Time elapsed: 0.138145923615